3 10
270 258 145 
0 14 4 32 22 51 41 74 60 75 65 1 13 3
1 12 2 89 79 73 63 53 64 96 20 30 2 3
2 42 32 85 75 19 9 62 53 10 100 97 10 1
3 105 95 13 3 30 20 82 73 5 84 50 44 3
4 76 66 55 45 25 15 67 13 66 94 29 88 1
5 82 72 91 81 91 81 75 77 79 92 67 55 3
6 13 3 60 50 14 4 2 84 54 31 4 62 2
7 102 92 79 69 55 45 81 48 55 15 75 14 2
8 110 100 61 51 11 1 96 68 35 89 13 79 1
9 84 74 52 42 21 11 39 24 39 1 49 78 3
